Traveling Salesman Problem/TSP_generados/Aleatorio1620390889_7.tsp
NAME: Aleatorio1620390889_7.tsp
COMMENT: Randomly generated scenario
TYPE: TSP
DIMENSION: 7
EDGE_WEIGHT_TYPE: ATT
NODE_COORD_SECTION
1 13.74 35.17
2 7.61 29.92
3 24.75 33.01
4 16.35 44.22
5 41.27 13.87
6 15.65 5.77
7 4.53 40.76
