Traveling Salesman Problem/TSP_generados/Aleatorio1620390889_7.opt.tour
NAME: Aleatorio1620390889_7.opt.tour
COMMENT: Optimal solution for Aleatorio1620390889_7 (121.83032295620582)
TYPE: TOUR
DIMENSION: 7
TOUR_SECTION
1 4 7 2 6 5 3
-1
EOF
